#Data

param a :
  1 2 3 4 5 :=
1 600 1300 2000 1200 1700 
2 1300 600 1400 1400 1300
3 2000 1400 300 2100 900 
4 1200 1400 2100 800 2100
5 2200 1300 1000 2300 800;

param p := 1 10000 2 7530 3 16740 4 7306 5 9200;

param c := 1 185 2 475 3 50 4 20 5 80;

param d := 1 270 2 200 3 120 4 190 5 100;